20 10
16 60 97 19 63 91 81 57 29 47
33 53 97 36 55 72 76 44 36 68
12 48 98 33 79 93 48 74 45 43
14 52 93 32 65 89 66 84 38 55
18 39 93 32 73 82 33 50 37 56
20 59 95 25 72 79 70 40 50 66
26 60 96 17 53 77 58 58 36 71
18 42 97 29 54 93 76 40 31 67
12 32 97 28 73 85 71 58 38 53
30 57 98 50 74 91 76 75 37 67
24 56 94 38 50 71 51 63 42 69
19 75 91 37 62 91 56 64 39 48
25 27 89 36 51 83 40 82 38 67
11 49 98 39 53 83 64 57 49 32
15 53 98 46 67 60 68 64 47 73
12 55 97 21 61 82 48 41 27 66
27 63 94 52 51 90 74 82 42 58
25 60 97 39 56 84 63 39 24 34
18 27 87 28 77 95 73 51 56 69
17 60 96 39 62 94 70 32 42 50
